start = 1;

limit = 6;

n = 12;

m=[|-1,-1,0,-1,4,-1,2,-1,-1,-1,15,20,
|-1,14,17,14,-1,17,7,15,6,18,7,17,
|-1,-1,-1,-1,17,13,10,17,10,-1,13,-1,
|1,4,20,-1,18,16,-1,-1,-1,-1,-1,15,
|8,2,-1,0,0,17,-1,20,8,-1,15,19,
|19,-1,-1,-1,16,9,20,6,-1,-1,-1,-1,
|-1,11,5,-1,-1,-1,8,-1,-1,18,7,-1,
|13,11,3,3,6,-1,-1,-1,-1,0,-1,-1,
|7,15,3,-1,-1,6,15,-1,-1,15,-1,5,
|-1,-1,-1,10,-1,-1,14,-1,10,-1,16,-1,
|-1,-1,-1,-1,-1,-1,-1,-1,11,-1,5,-1,
|9,13,-1,-1,17,7,-1,0,13,-1,-1,-1,
|];